$ 1 0.000005 10.20027730826997 64 5 50 5e-11
v 160 368 160 272 0 0 40 12 0 0 0.5
s 160 272 256 272 0 1 false
c 256 272 256 368 0 0.000002 -5.403505656442013e-14 0
s 240 272 352 272 0 1 false
c 352 272 352 368 0 0.0000049999999999999996 -3.815614491031738e-12 0
r 160 368 160 464 0 10
c 160 464 256 464 0 0.000001 1.0850726877276956e-11 0
r 256 464 256 368 0 10
v 256 464 352 464 0 0 40 6 0 0 0.5
r 352 464 352 368 0 10
x 107 327 136 330 4 24 E1
x 111 425 141 428 4 24 R1
x 204 327 234 330 4 24 C3
x 192 507 222 510 4 24 C1
x 293 505 322 508 4 24 E2
x 210 425 240 428 4 24 R3
x 302 326 332 329 4 24 C2
x 303 423 333 426 4 24 R2
x 177 552 349 555 6 24 28-Aug-2021-z3
